(set-info :source |printed by MathSAT|)
(declare-fun |.x{1550}| () Int)
(declare-fun |.x{2250}| () Int)
(declare-fun |.x{1582}| () (Array Int Int))
(declare-fun |.x{2251}| () (Array Int Int))
(declare-fun |.x{1552}| () (Array Int Int))
(declare-fun |.x{2252}| () (Array Int Int))
(declare-fun |.x{1553}| () (Array Int (Array Int Int)))
(declare-fun |.x{2253}| () (Array Int (Array Int Int)))
(declare-fun |.x{1554}| () (Array Int (Array Int Int)))
(declare-fun |.x{2254}| () (Array Int (Array Int Int)))
(declare-fun |.x{1555}| () Int)
(declare-fun |.x{2255}| () Int)
(declare-fun |.x{1556}| () Int)
(declare-fun |.x{2256}| () Int)
(declare-fun |.x{1557}| () (Array Int Int))
(declare-fun |.x{2257}| () (Array Int Int))
(declare-fun |.x{1558}| () (Array Int Int))
(declare-fun |.x{2258}| () (Array Int Int))
(declare-fun |.x{1559}| () Int)
(declare-fun |.x{2259}| () Int)
(declare-fun |.x{1560}| () Int)
(declare-fun |.x{2260}| () Int)
(declare-fun |.x{1561}| () Int)
(declare-fun |.x{2261}| () Int)
(declare-fun |.x{1593}| () Int)
(declare-fun |.x{2262}| () Int)
(declare-fun |.x{1563}| () Int)
(declare-fun |.x{2263}| () Int)
(declare-fun |.x{1564}| () Int)
(declare-fun |.x{2264}| () Int)
(declare-fun |.x{1565}| () Int)
(declare-fun |.x{2265}| () Int)
(declare-fun |.x{1566}| () Int)
(declare-fun |.x{2266}| () Int)
(declare-fun |.x{1567}| () Int)
(declare-fun |.x{2267}| () Int)
(declare-fun |.x{1568}| () Int)
(declare-fun |.x{2268}| () Int)
(declare-fun |.x{1569}| () Int)
(declare-fun |.x{2269}| () Int)
(declare-fun |.x{1601}| () Int)
(declare-fun |.x{2270}| () Int)
(declare-fun |.x{1571}| () Int)
(declare-fun |.x{2271}| () Int)
(declare-fun |.x{1572}| () Int)
(declare-fun |.x{2272}| () Int)
(declare-fun |.x{1604}| () Int)
(declare-fun |.x{2273}| () Int)
(declare-fun |.x{1574}| () Int)
(declare-fun |.x{2274}| () Int)
(declare-fun |.x{1606}| () Int)
(declare-fun |.x{2275}| () Int)
(declare-fun |.x{1607}| () Int)
(declare-fun |.x{2276}| () Int)
(declare-fun |.x{1577}| () Int)
(declare-fun |.x{2277}| () Int)
(declare-fun |.x{1578}| () Int)
(declare-fun |.x{2278}| () Int)
(declare-fun |.x{1579}| () Int)
(declare-fun |.x{2279}| () Int)
(declare-fun |.x{1580}| () Bool)
(declare-fun |.x{2280}| () Bool)
(declare-fun |.loc{5}| () Bool)
(declare-fun |.loc{9}| () Bool)
(declare-fun |.loc{6}| () Bool)
(declare-fun |.loc{10}| () Bool)
(declare-fun |.loc{7}| () Bool)
(declare-fun |.loc{11}| () Bool)
(declare-fun |.loc{8}| () Bool)
(declare-fun |.loc{12}| () Bool)
(declare-fun |.x{123}| () (Array Int Int))
(define-fun .def_72 () Bool (! |.loc{6}| :next |.loc{10}|))
(define-fun .def_137 () Bool (not .def_72))
(define-fun .def_70 () Bool (! |.loc{5}| :next |.loc{9}|))
(define-fun .def_133 () Bool (not .def_70))
(define-fun .def_716 () Bool (and .def_133 .def_137))
(define-fun .def_74 () Bool (! |.loc{7}| :next |.loc{11}|))
(define-fun .def_142 () Bool (not .def_74))
(define-fun .def_717 () Bool (and .def_142 .def_716))
(define-fun .def_76 () Bool (! |.loc{8}| :next |.loc{12}|))
(define-fun .def_135 () Bool (not .def_76))
(define-fun .def_718 () Bool (and .def_135 .def_717))
(define-fun .def_68 () Bool (! |.x{1580}| :next |.x{2280}|))
(define-fun .def_710 () Bool (not .def_68))
(define-fun .def_16 () (Array Int (Array Int Int)) (! |.x{1554}| :next |.x{2254}|))
(define-fun .def_14 () (Array Int (Array Int Int)) (! |.x{1553}| :next |.x{2253}|))
(define-fun .def_709 () Bool (= .def_14 .def_16))
(define-fun .def_711 () Bool (and .def_709 .def_710))
(define-fun .def_28 () Int (! |.x{1560}| :next |.x{2260}|))
(define-fun .def_26 () Int (! |.x{1559}| :next |.x{2259}|))
(define-fun .def_708 () Bool (= .def_26 .def_28))
(define-fun .def_712 () Bool (and .def_708 .def_711))
(define-fun .def_20 () Int (! |.x{1556}| :next |.x{2256}|))
(define-fun .def_18 () Int (! |.x{1555}| :next |.x{2255}|))
(define-fun .def_707 () Bool (= .def_18 .def_20))
(define-fun .def_713 () Bool (and .def_707 .def_712))
(define-fun .def_24 () (Array Int Int) (! |.x{1558}| :next |.x{2258}|))
(define-fun .def_22 () (Array Int Int) (! |.x{1557}| :next |.x{2257}|))
(define-fun .def_706 () Bool (= .def_22 .def_24))
(define-fun .def_714 () Bool (and .def_706 .def_713))
(define-fun .def_12 () (Array Int Int) (! |.x{1552}| :next |.x{2252}|))
(define-fun .def_10 () (Array Int Int) (! |.x{1582}| :next |.x{2251}|))
(define-fun .def_705 () Bool (= .def_10 .def_12))
(define-fun .def_715 () Bool (and .def_705 .def_714))
(define-fun .def_719 () Bool (! (and .def_715 .def_718) :init true))
(define-fun .def_702 () Bool (= .def_28 |.x{2260}|))
(define-fun .def_700 () Bool (= .def_24 |.x{2258}|))
(define-fun .def_698 () Bool (= .def_20 |.x{2256}|))
(define-fun .def_696 () Bool (= .def_16 |.x{2254}|))
(define-fun .def_8 () Int (! |.x{1550}| :next |.x{2250}|))
(define-fun .def_694 () Bool (= .def_8 |.x{2250}|))
(define-fun .def_693 () Bool (= .def_12 |.x{2252}|))
(define-fun .def_695 () Bool (and .def_693 .def_694))
(define-fun .def_697 () Bool (and .def_695 .def_696))
(define-fun .def_699 () Bool (and .def_697 .def_698))
(define-fun .def_701 () Bool (and .def_699 .def_700))
(define-fun .def_703 () Bool (and .def_701 .def_702))
(define-fun .def_690 () Bool (= .def_26 |.x{2259}|))
(define-fun .def_688 () Bool (= .def_22 |.x{2257}|))
(define-fun .def_30 () Int (! |.x{1561}| :next |.x{2261}|))
(define-fun .def_684 () Bool (= .def_30 |.x{2261}|))
(define-fun .def_36 () Int (! |.x{1564}| :next |.x{2264}|))
(define-fun .def_681 () Bool (= .def_36 |.x{2264}|))
(define-fun .def_42 () Int (! |.x{1567}| :next |.x{2267}|))
(define-fun .def_680 () Bool (= .def_42 |.x{2267}|))
(define-fun .def_682 () Bool (and .def_680 .def_681))
(define-fun .def_649 () Bool (= |.x{2276}| 0))
(define-fun .def_58 () Int (! |.x{1606}| :next |.x{2275}|))
(define-fun .def_48 () Int (! |.x{1601}| :next |.x{2270}|))
(define-fun .def_646 () (Array Int Int) (store .def_10 .def_48 0))
(define-fun .def_647 () (Array Int Int) (store .def_646 .def_58 0))
(define-fun .def_648 () Bool (= |.x{2251}| .def_647))
(define-fun .def_650 () Bool (and .def_648 .def_649))
(define-fun .def_651 () Bool (or .def_68 .def_650))
(define-fun .def_640 () Bool (= |.x{2269}| |.x{2276}|))
(define-fun .def_641 () Bool (or |.x{2280}| .def_640))
(define-fun .def_121 () Bool (= .def_68 |.x{2280}|))
(define-fun .def_642 () Bool (and .def_121 .def_641))
(define-fun .def_643 () Bool (and .def_74 .def_642))
(define-fun .def_644 () Bool (and .def_133 .def_643))
(define-fun .def_645 () Bool (and .def_137 .def_644))
(define-fun .def_652 () Bool (and .def_645 .def_651))
(define-fun .def_630 () Bool (and .def_70 .def_72))
(define-fun .def_631 () Bool (and |.x{2280}| .def_630))
(define-fun .def_632 () Bool (and .def_142 .def_631))
(define-fun .def_60 () Int (! |.x{1607}| :next |.x{2276}|))
(define-fun .def_180 () Bool (= .def_60 |.x{2276}|))
(define-fun .def_633 () Bool (and .def_180 .def_632))
(define-fun .def_182 () Bool (= .def_58 |.x{2275}|))
(define-fun .def_634 () Bool (and .def_182 .def_633))
(define-fun .def_54 () Int (! |.x{1604}| :next |.x{2273}|))
(define-fun .def_184 () Bool (= .def_54 |.x{2273}|))
(define-fun .def_635 () Bool (and .def_184 .def_634))
(define-fun .def_186 () Bool (= .def_48 |.x{2270}|))
(define-fun .def_636 () Bool (and .def_186 .def_635))
(define-fun .def_46 () Int (! |.x{1569}| :next |.x{2269}|))
(define-fun .def_146 () Bool (= .def_46 |.x{2269}|))
(define-fun .def_637 () Bool (and .def_146 .def_636))
(define-fun .def_32 () Int (! |.x{1593}| :next |.x{2262}|))
(define-fun .def_189 () Bool (= .def_32 |.x{2262}|))
(define-fun .def_638 () Bool (and .def_189 .def_637))
(define-fun .def_191 () Bool (= .def_10 |.x{2251}|))
(define-fun .def_639 () Bool (and .def_191 .def_638))
(define-fun .def_653 () Bool (or .def_639 .def_652))
(define-fun .def_140 () Bool (not |.loc{10}|))
(define-fun .def_629 () Bool (and |.loc{11}| .def_140))
(define-fun .def_654 () Bool (and .def_629 .def_653))
(define-fun .def_34 () Int (! |.x{1563}| :next |.x{2263}|))
(define-fun .def_421 () Bool (= .def_34 0))
(define-fun .def_615 () Bool (or .def_68 .def_421))
(define-fun .def_616 () Bool (and .def_121 .def_615))
(define-fun .def_617 () Bool (and .def_72 .def_616))
(define-fun .def_618 () Bool (and .def_133 .def_617))
(define-fun .def_619 () Bool (and |.loc{10}| .def_618))
(define-fun .def_620 () Bool (and .def_142 .def_619))
(define-fun .def_621 () Bool (and .def_180 .def_620))
(define-fun .def_622 () Bool (and .def_182 .def_621))
(define-fun .def_623 () Bool (and .def_184 .def_622))
(define-fun .def_624 () Bool (and .def_186 .def_623))
(define-fun .def_625 () Bool (and .def_146 .def_624))
(define-fun .def_626 () Bool (and .def_189 .def_625))
(define-fun .def_627 () Bool (and .def_191 .def_626))
(define-fun .def_148 () Bool (not |.loc{11}|))
(define-fun .def_628 () Bool (and .def_148 .def_627))
(define-fun .def_655 () Bool (or .def_628 .def_654))
(define-fun .def_56 () Int (! |.x{1574}| :next |.x{2274}|))
(define-fun .def_159 () Bool (= .def_56 |.x{2274}|))
(define-fun .def_79 () Bool (= .def_34 |.x{2263}|))
(define-fun .def_507 () Bool (and .def_79 .def_159))
(define-fun .def_62 () Int (! |.x{1577}| :next |.x{2277}|))
(define-fun .def_78 () Bool (= .def_62 |.x{2277}|))
(define-fun .def_508 () Bool (and .def_78 .def_507))
(define-fun .def_64 () Int (! |.x{1578}| :next |.x{2278}|))
(define-fun .def_162 () Bool (= .def_64 |.x{2278}|))
(define-fun .def_509 () Bool (and .def_162 .def_508))
(define-fun .def_614 () Bool (and |.loc{9}| .def_509))
(define-fun .def_656 () Bool (and .def_614 .def_655))
(define-fun .def_594 () Bool (= |.x{2263}| |.x{2277}|))
(define-fun .def_591 () Bool (= |.x{2274}| |.x{2278}|))
(define-fun .def_592 () Int (ite .def_591 1 0))
(define-fun .def_593 () Bool (= |.x{2277}| .def_592))
(define-fun .def_595 () Bool (and .def_593 .def_594))
(define-fun .def_50 () Int (! |.x{1571}| :next |.x{2271}|))
(define-fun .def_581 () Int (* 4 .def_50))
(define-fun .def_588 () Int (+ .def_581 .def_54))
(define-fun .def_204 () (Array Int Int) (select .def_14 .def_48))
(define-fun .def_589 () Int (select .def_204 .def_588))
(define-fun .def_590 () Bool (= |.x{2278}| .def_589))
(define-fun .def_596 () Bool (and .def_590 .def_595))
(define-fun .def_44 () Int (! |.x{1568}| :next |.x{2268}|))
(define-fun .def_446 () Bool (= .def_44 .def_50))
(define-fun .def_586 () Bool (not .def_446))
(define-fun .def_597 () Bool (and .def_586 .def_596))
(define-fun .def_582 () Int (+ .def_32 .def_581))
(define-fun .def_583 () (Array Int Int) (select .def_14 .def_58))
(define-fun .def_584 () Int (select .def_583 .def_582))
(define-fun .def_585 () Bool (= |.x{2274}| .def_584))
(define-fun .def_598 () Bool (and .def_585 .def_597))
(define-fun .def_599 () Bool (or .def_68 .def_598))
(define-fun .def_600 () Bool (and .def_121 .def_599))
(define-fun .def_601 () Bool (and .def_70 .def_600))
(define-fun .def_602 () Bool (and .def_137 .def_601))
(define-fun .def_603 () Bool (and |.loc{10}| .def_602))
(define-fun .def_604 () Bool (and .def_142 .def_603))
(define-fun .def_605 () Bool (and .def_180 .def_604))
(define-fun .def_606 () Bool (and .def_182 .def_605))
(define-fun .def_607 () Bool (and .def_184 .def_606))
(define-fun .def_608 () Bool (and .def_186 .def_607))
(define-fun .def_609 () Bool (and .def_146 .def_608))
(define-fun .def_610 () Bool (and .def_189 .def_609))
(define-fun .def_611 () Bool (and .def_191 .def_610))
(define-fun .def_247 () Bool (not |.loc{9}|))
(define-fun .def_612 () Bool (and .def_247 .def_611))
(define-fun .def_613 () Bool (and .def_148 .def_612))
(define-fun .def_657 () Bool (or .def_613 .def_656))
(define-fun .def_510 () Bool (and .def_121 .def_509))
(define-fun .def_567 () Bool (and .def_68 .def_510))
(define-fun .def_568 () Bool (and .def_133 .def_567))
(define-fun .def_569 () Bool (and .def_137 .def_568))
(define-fun .def_570 () Bool (and |.loc{11}| .def_569))
(define-fun .def_571 () Bool (and .def_140 .def_570))
(define-fun .def_572 () Bool (and .def_142 .def_571))
(define-fun .def_573 () Bool (and .def_180 .def_572))
(define-fun .def_574 () Bool (and .def_182 .def_573))
(define-fun .def_575 () Bool (and .def_184 .def_574))
(define-fun .def_576 () Bool (and .def_186 .def_575))
(define-fun .def_577 () Bool (and .def_146 .def_576))
(define-fun .def_578 () Bool (and .def_189 .def_577))
(define-fun .def_579 () Bool (and .def_191 .def_578))
(define-fun .def_580 () Bool (and .def_247 .def_579))
(define-fun .def_658 () Bool (or .def_580 .def_657))
(define-fun .def_537 () Bool (<= 200000 .def_50))
(define-fun .def_548 () Bool (or .def_68 .def_537))
(define-fun .def_549 () Bool (and .def_79 .def_548))
(define-fun .def_550 () Bool (and .def_159 .def_549))
(define-fun .def_551 () Bool (and .def_78 .def_550))
(define-fun .def_552 () Bool (and .def_162 .def_551))
(define-fun .def_553 () Bool (and .def_121 .def_552))
(define-fun .def_554 () Bool (and .def_133 .def_553))
(define-fun .def_555 () Bool (and .def_137 .def_554))
(define-fun .def_556 () Bool (and |.loc{11}| .def_555))
(define-fun .def_557 () Bool (and .def_140 .def_556))
(define-fun .def_558 () Bool (and .def_142 .def_557))
(define-fun .def_559 () Bool (and .def_180 .def_558))
(define-fun .def_560 () Bool (and .def_182 .def_559))
(define-fun .def_561 () Bool (and .def_184 .def_560))
(define-fun .def_562 () Bool (and .def_186 .def_561))
(define-fun .def_563 () Bool (and .def_146 .def_562))
(define-fun .def_564 () Bool (and .def_189 .def_563))
(define-fun .def_565 () Bool (and .def_191 .def_564))
(define-fun .def_566 () Bool (and .def_247 .def_565))
(define-fun .def_659 () Bool (or .def_566 .def_658))
(define-fun .def_538 () Bool (not .def_537))
(define-fun .def_539 () Bool (or .def_68 .def_538))
(define-fun .def_531 () Bool (and .def_133 .def_510))
(define-fun .def_532 () Bool (and .def_137 .def_531))
(define-fun .def_533 () Bool (and |.loc{9}| .def_532))
(define-fun .def_534 () Bool (and .def_140 .def_533))
(define-fun .def_535 () Bool (and .def_142 .def_534))
(define-fun .def_536 () Bool (and .def_180 .def_535))
(define-fun .def_540 () Bool (and .def_536 .def_539))
(define-fun .def_541 () Bool (and .def_182 .def_540))
(define-fun .def_542 () Bool (and .def_184 .def_541))
(define-fun .def_543 () Bool (and .def_186 .def_542))
(define-fun .def_544 () Bool (and .def_146 .def_543))
(define-fun .def_545 () Bool (and .def_189 .def_544))
(define-fun .def_546 () Bool (and .def_191 .def_545))
(define-fun .def_547 () Bool (and .def_148 .def_546))
(define-fun .def_660 () Bool (or .def_547 .def_659))
(define-fun .def_52 () Int (! |.x{1572}| :next |.x{2272}|))
(define-fun .def_157 () Bool (= .def_52 |.x{2272}|))
(define-fun .def_155 () Bool (= .def_50 |.x{2271}|))
(define-fun .def_530 () Bool (and .def_155 .def_157))
(define-fun .def_661 () Bool (and .def_530 .def_660))
(define-fun .def_662 () Bool (and .def_76 .def_661))
(define-fun .def_515 () Int (* (- 1) |.x{2271}|))
(define-fun .def_516 () Int (+ .def_50 .def_515))
(define-fun .def_517 () Bool (= .def_516 (- 1)))
(define-fun .def_518 () Bool (or .def_68 .def_517))
(define-fun .def_511 () Bool (and .def_70 .def_510))
(define-fun .def_512 () Bool (and .def_72 .def_511))
(define-fun .def_513 () Bool (and .def_74 .def_512))
(define-fun .def_514 () Bool (and .def_135 .def_513))
(define-fun .def_519 () Bool (and .def_514 .def_518))
(define-fun .def_520 () Bool (and .def_140 .def_519))
(define-fun .def_521 () Bool (and .def_180 .def_520))
(define-fun .def_522 () Bool (and .def_182 .def_521))
(define-fun .def_523 () Bool (and .def_184 .def_522))
(define-fun .def_524 () Bool (and .def_186 .def_523))
(define-fun .def_525 () Bool (and .def_146 .def_524))
(define-fun .def_526 () Bool (and .def_189 .def_525))
(define-fun .def_527 () Bool (and .def_191 .def_526))
(define-fun .def_528 () Bool (and .def_247 .def_527))
(define-fun .def_529 () Bool (and .def_148 .def_528))
(define-fun .def_663 () Bool (or .def_529 .def_662))
(define-fun .def_664 () Bool (and |.loc{12}| .def_663))
(define-fun .def_349 () Bool (and .def_79 .def_155))
(define-fun .def_350 () Bool (and .def_157 .def_349))
(define-fun .def_490 () Bool (and .def_78 .def_350))
(define-fun .def_491 () Bool (and .def_121 .def_490))
(define-fun .def_492 () Bool (and .def_72 .def_491))
(define-fun .def_493 () Bool (and .def_74 .def_492))
(define-fun .def_131 () Bool (not |.loc{12}|))
(define-fun .def_494 () Bool (and .def_131 .def_493))
(define-fun .def_495 () Bool (and .def_135 .def_494))
(define-fun .def_496 () Bool (and .def_133 .def_495))
(define-fun .def_497 () Bool (and |.loc{9}| .def_496))
(define-fun .def_498 () Bool (and |.loc{10}| .def_497))
(define-fun .def_499 () Bool (and |.loc{11}| .def_498))
(define-fun .def_500 () Bool (and .def_180 .def_499))
(define-fun .def_501 () Bool (and .def_182 .def_500))
(define-fun .def_502 () Bool (and .def_184 .def_501))
(define-fun .def_503 () Bool (and .def_186 .def_502))
(define-fun .def_504 () Bool (and .def_146 .def_503))
(define-fun .def_505 () Bool (and .def_189 .def_504))
(define-fun .def_506 () Bool (and .def_191 .def_505))
(define-fun .def_665 () Bool (or .def_506 .def_664))
(define-fun .def_474 () Bool (= |.x{2271}| 0))
(define-fun .def_475 () Bool (or .def_68 .def_474))
(define-fun .def_467 () Bool (and .def_79 .def_157))
(define-fun .def_468 () Bool (and .def_159 .def_467))
(define-fun .def_469 () Bool (and .def_78 .def_468))
(define-fun .def_470 () Bool (and .def_162 .def_469))
(define-fun .def_471 () Bool (and .def_121 .def_470))
(define-fun .def_472 () Bool (and .def_70 .def_471))
(define-fun .def_473 () Bool (and .def_74 .def_472))
(define-fun .def_476 () Bool (and .def_473 .def_475))
(define-fun .def_477 () Bool (and .def_135 .def_476))
(define-fun .def_478 () Bool (and .def_137 .def_477))
(define-fun .def_479 () Bool (and |.loc{12}| .def_478))
(define-fun .def_480 () Bool (and .def_140 .def_479))
(define-fun .def_481 () Bool (and .def_180 .def_480))
(define-fun .def_482 () Bool (and .def_182 .def_481))
(define-fun .def_483 () Bool (and .def_184 .def_482))
(define-fun .def_484 () Bool (and .def_186 .def_483))
(define-fun .def_485 () Bool (and .def_146 .def_484))
(define-fun .def_486 () Bool (and .def_189 .def_485))
(define-fun .def_487 () Bool (and .def_191 .def_486))
(define-fun .def_488 () Bool (and .def_247 .def_487))
(define-fun .def_489 () Bool (and .def_148 .def_488))
(define-fun .def_666 () Bool (or .def_489 .def_665))
(define-fun .def_447 () Bool (or .def_68 .def_446))
(define-fun .def_351 () Bool (and .def_159 .def_350))
(define-fun .def_448 () Bool (and .def_351 .def_447))
(define-fun .def_449 () Bool (and .def_78 .def_448))
(define-fun .def_450 () Bool (and .def_162 .def_449))
(define-fun .def_451 () Bool (and .def_121 .def_450))
(define-fun .def_452 () Bool (and .def_70 .def_451))
(define-fun .def_453 () Bool (and .def_76 .def_452))
(define-fun .def_454 () Bool (and .def_131 .def_453))
(define-fun .def_455 () Bool (and .def_137 .def_454))
(define-fun .def_456 () Bool (and |.loc{9}| .def_455))
(define-fun .def_457 () Bool (and |.loc{10}| .def_456))
(define-fun .def_458 () Bool (and |.loc{11}| .def_457))
(define-fun .def_459 () Bool (and .def_142 .def_458))
(define-fun .def_460 () Bool (and .def_180 .def_459))
(define-fun .def_461 () Bool (and .def_182 .def_460))
(define-fun .def_462 () Bool (and .def_184 .def_461))
(define-fun .def_463 () Bool (and .def_186 .def_462))
(define-fun .def_464 () Bool (and .def_146 .def_463))
(define-fun .def_465 () Bool (and .def_189 .def_464))
(define-fun .def_466 () Bool (and .def_191 .def_465))
(define-fun .def_667 () Bool (or .def_466 .def_666))
(define-fun .def_422 () Bool (not .def_421))
(define-fun .def_423 () Bool (or .def_68 .def_422))
(define-fun .def_424 () Bool (and .def_79 .def_423))
(define-fun .def_425 () Bool (and .def_155 .def_424))
(define-fun .def_426 () Bool (and .def_157 .def_425))
(define-fun .def_427 () Bool (and .def_159 .def_426))
(define-fun .def_428 () Bool (and .def_78 .def_427))
(define-fun .def_429 () Bool (and .def_162 .def_428))
(define-fun .def_430 () Bool (and .def_121 .def_429))
(define-fun .def_431 () Bool (and .def_72 .def_430))
(define-fun .def_432 () Bool (and .def_76 .def_431))
(define-fun .def_433 () Bool (and .def_131 .def_432))
(define-fun .def_434 () Bool (and .def_133 .def_433))
(define-fun .def_435 () Bool (and |.loc{10}| .def_434))
(define-fun .def_436 () Bool (and |.loc{11}| .def_435))
(define-fun .def_437 () Bool (and .def_142 .def_436))
(define-fun .def_438 () Bool (and .def_180 .def_437))
(define-fun .def_439 () Bool (and .def_182 .def_438))
(define-fun .def_440 () Bool (and .def_184 .def_439))
(define-fun .def_441 () Bool (and .def_186 .def_440))
(define-fun .def_442 () Bool (and .def_146 .def_441))
(define-fun .def_443 () Bool (and .def_189 .def_442))
(define-fun .def_444 () Bool (and .def_191 .def_443))
(define-fun .def_445 () Bool (and .def_247 .def_444))
(define-fun .def_668 () Bool (or .def_445 .def_667))
(define-fun .def_352 () Bool (and .def_78 .def_351))
(define-fun .def_372 () Bool (and .def_162 .def_352))
(define-fun .def_373 () Bool (and .def_121 .def_372))
(define-fun .def_390 () Bool (and .def_68 .def_373))
(define-fun .def_406 () Bool (and .def_70 .def_390))
(define-fun .def_407 () Bool (and .def_72 .def_406))
(define-fun .def_408 () Bool (and .def_76 .def_407))
(define-fun .def_409 () Bool (and .def_131 .def_408))
(define-fun .def_410 () Bool (and |.loc{10}| .def_409))
(define-fun .def_411 () Bool (and |.loc{11}| .def_410))
(define-fun .def_412 () Bool (and .def_142 .def_411))
(define-fun .def_413 () Bool (and .def_180 .def_412))
(define-fun .def_414 () Bool (and .def_182 .def_413))
(define-fun .def_415 () Bool (and .def_184 .def_414))
(define-fun .def_416 () Bool (and .def_186 .def_415))
(define-fun .def_417 () Bool (and .def_146 .def_416))
(define-fun .def_418 () Bool (and .def_189 .def_417))
(define-fun .def_419 () Bool (and .def_191 .def_418))
(define-fun .def_420 () Bool (and .def_247 .def_419))
(define-fun .def_669 () Bool (or .def_420 .def_668))
(define-fun .def_391 () Bool (and .def_74 .def_390))
(define-fun .def_392 () Bool (and .def_131 .def_391))
(define-fun .def_393 () Bool (and .def_133 .def_392))
(define-fun .def_394 () Bool (and .def_135 .def_393))
(define-fun .def_395 () Bool (and .def_137 .def_394))
(define-fun .def_396 () Bool (and |.loc{9}| .def_395))
(define-fun .def_397 () Bool (and |.loc{11}| .def_396))
(define-fun .def_398 () Bool (and .def_140 .def_397))
(define-fun .def_399 () Bool (and .def_180 .def_398))
(define-fun .def_400 () Bool (and .def_182 .def_399))
(define-fun .def_401 () Bool (and .def_184 .def_400))
(define-fun .def_402 () Bool (and .def_186 .def_401))
(define-fun .def_403 () Bool (and .def_146 .def_402))
(define-fun .def_404 () Bool (and .def_189 .def_403))
(define-fun .def_405 () Bool (and .def_191 .def_404))
(define-fun .def_670 () Bool (or .def_405 .def_669))
(define-fun .def_40 () Int (! |.x{1566}| :next |.x{2266}|))
(define-fun .def_217 () Bool (<= 200000 .def_40))
(define-fun .def_232 () Bool (or .def_68 .def_217))
(define-fun .def_374 () Bool (and .def_232 .def_373))
(define-fun .def_375 () Bool (and .def_74 .def_374))
(define-fun .def_376 () Bool (and .def_131 .def_375))
(define-fun .def_377 () Bool (and .def_133 .def_376))
(define-fun .def_378 () Bool (and .def_135 .def_377))
(define-fun .def_379 () Bool (and .def_137 .def_378))
(define-fun .def_380 () Bool (and |.loc{9}| .def_379))
(define-fun .def_381 () Bool (and |.loc{11}| .def_380))
(define-fun .def_382 () Bool (and .def_140 .def_381))
(define-fun .def_383 () Bool (and .def_180 .def_382))
(define-fun .def_384 () Bool (and .def_182 .def_383))
(define-fun .def_385 () Bool (and .def_184 .def_384))
(define-fun .def_386 () Bool (and .def_186 .def_385))
(define-fun .def_387 () Bool (and .def_146 .def_386))
(define-fun .def_388 () Bool (and .def_189 .def_387))
(define-fun .def_389 () Bool (and .def_191 .def_388))
(define-fun .def_671 () Bool (or .def_389 .def_670))
(define-fun .def_222 () Bool (= .def_40 |.x{2266}|))
(define-fun .def_38 () Int (! |.x{1565}| :next |.x{2265}|))
(define-fun .def_153 () Bool (= .def_38 |.x{2265}|))
(define-fun .def_371 () Bool (and .def_153 .def_222))
(define-fun .def_672 () Bool (and .def_371 .def_671))
(define-fun .def_174 () Int (* (- 1) |.x{2266}|))
(define-fun .def_175 () Int (+ .def_40 .def_174))
(define-fun .def_176 () Bool (= .def_175 (- 1)))
(define-fun .def_348 () Bool (or .def_68 .def_176))
(define-fun .def_353 () Bool (and .def_348 .def_352))
(define-fun .def_354 () Bool (and .def_162 .def_353))
(define-fun .def_355 () Bool (and .def_121 .def_354))
(define-fun .def_356 () Bool (and .def_70 .def_355))
(define-fun .def_357 () Bool (and .def_72 .def_356))
(define-fun .def_358 () Bool (and .def_131 .def_357))
(define-fun .def_359 () Bool (and .def_135 .def_358))
(define-fun .def_360 () Bool (and |.loc{11}| .def_359))
(define-fun .def_361 () Bool (and .def_140 .def_360))
(define-fun .def_362 () Bool (and .def_142 .def_361))
(define-fun .def_363 () Bool (and .def_180 .def_362))
(define-fun .def_364 () Bool (and .def_182 .def_363))
(define-fun .def_365 () Bool (and .def_184 .def_364))
(define-fun .def_366 () Bool (and .def_186 .def_365))
(define-fun .def_367 () Bool (and .def_146 .def_366))
(define-fun .def_368 () Bool (and .def_189 .def_367))
(define-fun .def_369 () Bool (and .def_191 .def_368))
(define-fun .def_370 () Bool (and .def_247 .def_369))
(define-fun .def_673 () Bool (or .def_370 .def_672))
(define-fun .def_105 () Bool (= |.x{2266}| 0))
(define-fun .def_328 () Bool (or .def_68 .def_105))
(define-fun .def_154 () Bool (and .def_79 .def_153))
(define-fun .def_156 () Bool (and .def_154 .def_155))
(define-fun .def_158 () Bool (and .def_156 .def_157))
(define-fun .def_160 () Bool (and .def_158 .def_159))
(define-fun .def_329 () Bool (and .def_160 .def_328))
(define-fun .def_330 () Bool (and .def_78 .def_329))
(define-fun .def_331 () Bool (and .def_162 .def_330))
(define-fun .def_332 () Bool (and .def_121 .def_331))
(define-fun .def_333 () Bool (and .def_72 .def_332))
(define-fun .def_334 () Bool (and .def_131 .def_333))
(define-fun .def_335 () Bool (and .def_133 .def_334))
(define-fun .def_336 () Bool (and .def_135 .def_335))
(define-fun .def_337 () Bool (and |.loc{11}| .def_336))
(define-fun .def_338 () Bool (and .def_140 .def_337))
(define-fun .def_339 () Bool (and .def_142 .def_338))
(define-fun .def_340 () Bool (and .def_180 .def_339))
(define-fun .def_341 () Bool (and .def_182 .def_340))
(define-fun .def_342 () Bool (and .def_184 .def_341))
(define-fun .def_343 () Bool (and .def_186 .def_342))
(define-fun .def_344 () Bool (and .def_146 .def_343))
(define-fun .def_345 () Bool (and .def_189 .def_344))
(define-fun .def_346 () Bool (and .def_191 .def_345))
(define-fun .def_347 () Bool (and .def_247 .def_346))
(define-fun .def_674 () Bool (or .def_347 .def_673))
(define-fun .def_66 () Int (! |.x{1579}| :next |.x{2279}|))
(define-fun .def_164 () Bool (= .def_66 |.x{2279}|))
(define-fun .def_144 () Bool (= .def_14 |.x{2253}|))
(define-fun .def_327 () Bool (and .def_144 .def_164))
(define-fun .def_675 () Bool (and .def_327 .def_674))
(define-fun .def_294 () Int (* 4 |.x{2266}|))
(define-fun .def_297 () Int (+ .def_294 |.x{2273}|))
(define-fun .def_296 () (Array Int Int) (select .def_14 |.x{2270}|))
(define-fun .def_298 () Int (select .def_296 .def_297))
(define-fun .def_299 () Int (+ |.x{2262}| .def_294))
(define-fun .def_300 () (Array Int Int) (select .def_14 |.x{2275}|))
(define-fun .def_301 () (Array Int Int) (store .def_300 .def_299 .def_298))
(define-fun .def_302 () (Array Int (Array Int Int)) (store .def_14 |.x{2275}| .def_301))
(define-fun .def_303 () Bool (= |.x{2253}| .def_302))
(define-fun .def_267 () Bool (= |.x{2266}| |.x{2268}|))
(define-fun .def_293 () Bool (not .def_267))
(define-fun .def_304 () Bool (and .def_293 .def_303))
(define-fun .def_305 () Bool (or |.x{2280}| .def_304))
(define-fun .def_223 () Bool (and .def_154 .def_222))
(define-fun .def_224 () Bool (and .def_155 .def_223))
(define-fun .def_225 () Bool (and .def_157 .def_224))
(define-fun .def_306 () Bool (and .def_225 .def_305))
(define-fun .def_307 () Bool (and .def_159 .def_306))
(define-fun .def_218 () Bool (not .def_217))
(define-fun .def_271 () Bool (or .def_68 .def_218))
(define-fun .def_308 () Bool (and .def_271 .def_307))
(define-fun .def_309 () Bool (and .def_78 .def_308))
(define-fun .def_310 () Bool (and .def_162 .def_309))
(define-fun .def_311 () Bool (and .def_121 .def_310))
(define-fun .def_312 () Bool (and .def_74 .def_311))
(define-fun .def_313 () Bool (and .def_131 .def_312))
(define-fun .def_314 () Bool (and .def_133 .def_313))
(define-fun .def_315 () Bool (and .def_135 .def_314))
(define-fun .def_316 () Bool (and .def_137 .def_315))
(define-fun .def_317 () Bool (and |.loc{9}| .def_316))
(define-fun .def_318 () Bool (and |.loc{10}| .def_317))
(define-fun .def_319 () Bool (and .def_180 .def_318))
(define-fun .def_320 () Bool (and .def_182 .def_319))
(define-fun .def_321 () Bool (and .def_184 .def_320))
(define-fun .def_322 () Bool (and .def_186 .def_321))
(define-fun .def_323 () Bool (and .def_146 .def_322))
(define-fun .def_324 () Bool (and .def_189 .def_323))
(define-fun .def_325 () Bool (and .def_191 .def_324))
(define-fun .def_326 () Bool (and .def_148 .def_325))
(define-fun .def_676 () Bool (or .def_326 .def_675))
(define-fun .def_268 () Bool (or |.x{2280}| .def_267))
(define-fun .def_269 () Bool (and .def_225 .def_268))
(define-fun .def_270 () Bool (and .def_159 .def_269))
(define-fun .def_272 () Bool (and .def_270 .def_271))
(define-fun .def_273 () Bool (and .def_78 .def_272))
(define-fun .def_274 () Bool (and .def_162 .def_273))
(define-fun .def_275 () Bool (and .def_164 .def_274))
(define-fun .def_276 () Bool (and .def_121 .def_275))
(define-fun .def_277 () Bool (and .def_74 .def_276))
(define-fun .def_278 () Bool (and .def_131 .def_277))
(define-fun .def_279 () Bool (and .def_133 .def_278))
(define-fun .def_280 () Bool (and .def_135 .def_279))
(define-fun .def_281 () Bool (and .def_137 .def_280))
(define-fun .def_282 () Bool (and |.loc{9}| .def_281))
(define-fun .def_283 () Bool (and |.loc{10}| .def_282))
(define-fun .def_284 () Bool (and .def_144 .def_283))
(define-fun .def_285 () Bool (and .def_180 .def_284))
(define-fun .def_286 () Bool (and .def_182 .def_285))
(define-fun .def_287 () Bool (and .def_184 .def_286))
(define-fun .def_288 () Bool (and .def_186 .def_287))
(define-fun .def_289 () Bool (and .def_146 .def_288))
(define-fun .def_290 () Bool (and .def_189 .def_289))
(define-fun .def_291 () Bool (and .def_191 .def_290))
(define-fun .def_292 () Bool (and .def_148 .def_291))
(define-fun .def_677 () Bool (or .def_292 .def_676))
(define-fun .def_226 () Bool (and .def_159 .def_225))
(define-fun .def_227 () Bool (and .def_78 .def_226))
(define-fun .def_228 () Bool (and .def_162 .def_227))
(define-fun .def_229 () Bool (and .def_164 .def_228))
(define-fun .def_230 () Bool (and .def_121 .def_229))
(define-fun .def_250 () Bool (and .def_68 .def_230))
(define-fun .def_251 () Bool (and .def_70 .def_250))
(define-fun .def_252 () Bool (and .def_131 .def_251))
(define-fun .def_253 () Bool (and .def_135 .def_252))
(define-fun .def_254 () Bool (and .def_137 .def_253))
(define-fun .def_255 () Bool (and |.loc{10}| .def_254))
(define-fun .def_256 () Bool (and .def_142 .def_255))
(define-fun .def_257 () Bool (and .def_144 .def_256))
(define-fun .def_258 () Bool (and .def_180 .def_257))
(define-fun .def_259 () Bool (and .def_182 .def_258))
(define-fun .def_260 () Bool (and .def_184 .def_259))
(define-fun .def_261 () Bool (and .def_186 .def_260))
(define-fun .def_262 () Bool (and .def_146 .def_261))
(define-fun .def_263 () Bool (and .def_189 .def_262))
(define-fun .def_264 () Bool (and .def_191 .def_263))
(define-fun .def_265 () Bool (and .def_247 .def_264))
(define-fun .def_266 () Bool (and .def_148 .def_265))
(define-fun .def_678 () Bool (or .def_266 .def_677))
(define-fun .def_231 () Bool (and .def_70 .def_230))
(define-fun .def_233 () Bool (and .def_231 .def_232))
(define-fun .def_234 () Bool (and .def_131 .def_233))
(define-fun .def_235 () Bool (and .def_135 .def_234))
(define-fun .def_236 () Bool (and .def_137 .def_235))
(define-fun .def_237 () Bool (and |.loc{10}| .def_236))
(define-fun .def_238 () Bool (and .def_142 .def_237))
(define-fun .def_239 () Bool (and .def_144 .def_238))
(define-fun .def_240 () Bool (and .def_180 .def_239))
(define-fun .def_241 () Bool (and .def_182 .def_240))
(define-fun .def_242 () Bool (and .def_184 .def_241))
(define-fun .def_243 () Bool (and .def_186 .def_242))
(define-fun .def_244 () Bool (and .def_146 .def_243))
(define-fun .def_245 () Bool (and .def_189 .def_244))
(define-fun .def_246 () Bool (and .def_191 .def_245))
(define-fun .def_248 () Bool (and .def_246 .def_247))
(define-fun .def_249 () Bool (and .def_148 .def_248))
(define-fun .def_679 () Bool (or .def_249 .def_678))
(define-fun .def_683 () Bool (and .def_679 .def_682))
(define-fun .def_685 () Bool (and .def_683 .def_684))
(define-fun .def_201 () Int (* 4 .def_40))
(define-fun .def_202 () Int (+ .def_32 .def_201))
(define-fun .def_205 () Int (+ .def_201 .def_54))
(define-fun .def_206 () (Array Int Int) (store .def_204 .def_205 .def_30))
(define-fun .def_207 () (Array Int (Array Int Int)) (store .def_14 .def_48 .def_206))
(define-fun .def_208 () (Array Int Int) (select .def_207 .def_58))
(define-fun .def_209 () (Array Int Int) (store .def_208 .def_202 .def_36))
(define-fun .def_210 () (Array Int (Array Int Int)) (store .def_207 .def_58 .def_209))
(define-fun .def_211 () Bool (= |.x{2253}| .def_210))
(define-fun .def_199 () Bool (<= (- 2147483648) .def_36))
(define-fun .def_212 () Bool (and .def_199 .def_211))
(define-fun .def_198 () Bool (<= .def_30 2147483647))
(define-fun .def_213 () Bool (and .def_198 .def_212))
(define-fun .def_197 () Bool (<= .def_36 2147483647))
(define-fun .def_214 () Bool (and .def_197 .def_213))
(define-fun .def_195 () Bool (<= (- 2147483648) .def_30))
(define-fun .def_215 () Bool (and .def_195 .def_214))
(define-fun .def_219 () Bool (and .def_215 .def_218))
(define-fun .def_220 () Bool (or .def_68 .def_219))
(define-fun .def_177 () Bool (or |.x{2280}| .def_176))
(define-fun .def_161 () Bool (and .def_78 .def_160))
(define-fun .def_163 () Bool (and .def_161 .def_162))
(define-fun .def_165 () Bool (and .def_163 .def_164))
(define-fun .def_166 () Bool (and .def_121 .def_165))
(define-fun .def_167 () Bool (and .def_70 .def_166))
(define-fun .def_168 () Bool (and .def_131 .def_167))
(define-fun .def_169 () Bool (and .def_135 .def_168))
(define-fun .def_170 () Bool (and .def_137 .def_169))
(define-fun .def_171 () Bool (and |.loc{9}| .def_170))
(define-fun .def_172 () Bool (and .def_140 .def_171))
(define-fun .def_178 () Bool (and .def_172 .def_177))
(define-fun .def_179 () Bool (and .def_142 .def_178))
(define-fun .def_181 () Bool (and .def_179 .def_180))
(define-fun .def_183 () Bool (and .def_181 .def_182))
(define-fun .def_185 () Bool (and .def_183 .def_184))
(define-fun .def_187 () Bool (and .def_185 .def_186))
(define-fun .def_188 () Bool (and .def_146 .def_187))
(define-fun .def_190 () Bool (and .def_188 .def_189))
(define-fun .def_192 () Bool (and .def_190 .def_191))
(define-fun .def_193 () Bool (and .def_148 .def_192))
(define-fun .def_221 () Bool (and .def_193 .def_220))
(define-fun .def_686 () Bool (or .def_221 .def_685))
(define-fun .def_151 () Bool (= .def_18 |.x{2255}|))
(define-fun .def_150 () Bool (= .def_44 |.x{2268}|))
(define-fun .def_152 () Bool (and .def_150 .def_151))
(define-fun .def_687 () Bool (and .def_152 .def_686))
(define-fun .def_689 () Bool (and .def_687 .def_688))
(define-fun .def_691 () Bool (and .def_689 .def_690))
(define-fun .def_126 () Bool (= |.x{2259}| 0))
(define-fun .def_125 () Bool (= |.x{2255}| 0))
(define-fun .def_127 () Bool (and .def_125 .def_126))
(define-fun .def_123 () (Array Int Int) (store .def_10 0 0))
(define-fun .def_124 () Bool (= |.x{123}| .def_123))
(define-fun .def_128 () Bool (and .def_124 .def_127))
(define-fun .def_129 () Bool (or .def_68 .def_128))
(define-fun .def_115 () Bool (<= |.x{2250}| |.x{2270}|))
(define-fun .def_116 () Bool (not .def_115))
(define-fun .def_108 () Bool (<= |.x{2250}| |.x{2275}|))
(define-fun .def_109 () Bool (not .def_108))
(define-fun .def_100 () (Array Int Int) (store .def_22 |.x{2270}| 800000))
(define-fun .def_101 () (Array Int Int) (store .def_100 |.x{2275}| 800000))
(define-fun .def_102 () Bool (= |.x{2257}| .def_101))
(define-fun .def_98 () Bool (= |.x{2273}| 0))
(define-fun .def_103 () Bool (and .def_98 .def_102))
(define-fun .def_97 () Bool (= |.x{2262}| 0))
(define-fun .def_104 () Bool (and .def_97 .def_103))
(define-fun .def_106 () Bool (and .def_104 .def_105))
(define-fun .def_90 () (Array Int Int) (store |.x{123}| |.x{2270}| 1))
(define-fun .def_95 () Int (select .def_90 |.x{2275}|))
(define-fun .def_96 () Bool (= .def_95 0))
(define-fun .def_107 () Bool (and .def_96 .def_106))
(define-fun .def_110 () Bool (and .def_107 .def_109))
(define-fun .def_93 () Bool (= |.x{2275}| 0))
(define-fun .def_94 () Bool (not .def_93))
(define-fun .def_111 () Bool (and .def_94 .def_110))
(define-fun .def_91 () (Array Int Int) (store .def_90 |.x{2275}| 1))
(define-fun .def_92 () Bool (= |.x{2251}| .def_91))
(define-fun .def_112 () Bool (and .def_92 .def_111))
(define-fun .def_88 () Bool (= |.x{2268}| 150000))
(define-fun .def_113 () Bool (and .def_88 .def_112))
(define-fun .def_85 () Int (select |.x{123}| |.x{2270}|))
(define-fun .def_86 () Bool (= .def_85 0))
(define-fun .def_114 () Bool (and .def_86 .def_113))
(define-fun .def_117 () Bool (and .def_114 .def_116))
(define-fun .def_82 () Bool (= |.x{2270}| 0))
(define-fun .def_83 () Bool (not .def_82))
(define-fun .def_118 () Bool (and .def_83 .def_117))
(define-fun .def_119 () Bool (or |.x{2280}| .def_118))
(define-fun .def_80 () Bool (and .def_78 .def_79))
(define-fun .def_120 () Bool (and .def_80 .def_119))
(define-fun .def_122 () Bool (and .def_120 .def_121))
(define-fun .def_130 () Bool (and .def_122 .def_129))
(define-fun .def_132 () Bool (and .def_130 .def_131))
(define-fun .def_134 () Bool (and .def_132 .def_133))
(define-fun .def_136 () Bool (and .def_134 .def_135))
(define-fun .def_138 () Bool (and .def_136 .def_137))
(define-fun .def_139 () Bool (and |.loc{9}| .def_138))
(define-fun .def_141 () Bool (and .def_139 .def_140))
(define-fun .def_143 () Bool (and .def_141 .def_142))
(define-fun .def_145 () Bool (and .def_143 .def_144))
(define-fun .def_147 () Bool (and .def_145 .def_146))
(define-fun .def_149 () Bool (and .def_147 .def_148))
(define-fun .def_692 () Bool (or .def_149 .def_691))
(define-fun .def_704 () Bool (! (and .def_692 .def_703) :trans true))
(define-fun .def_720 () Bool (and .def_70 .def_137))
(define-fun .def_721 () Bool (and .def_74 .def_720))
(define-fun .def_722 () Bool (and .def_76 .def_721))
(define-fun .def_723 () Bool (and .def_68 .def_722))
(define-fun .def_724 () Bool (! (not .def_723) :invar-property 0))
(assert true)
